&FORCE_EVAL
  METHOD Quickstep
  &DFT
    BASIS_SET_FILE_NAME BASIS_def2_QZVP_RI_ALL
    POTENTIAL_FILE_NAME POTENTIAL
    &MGRID
      CUTOFF 400
      REL_CUTOFF 50
    &END MGRID
    &QS
      ! all electron calculation since GW100 is all-electron test
      METHOD GAPW
    &END QS
    &POISSON
      PERIODIC NONE
      PSOLVER MT
    &END
    &SCF
      EPS_SCF 1.0E-6
      SCF_GUESS RESTART
      MAX_SCF 200
    &END SCF
    &XC
      &XC_FUNCTIONAL PBE
      &END XC_FUNCTIONAL
      ! GW is part of the WF_CORRELATION section
      &WF_CORRELATION
        METHOD  RI_RPA_GPW
        RI OVERLAP
        &WFC_GPW
          EPS_FILTER  1.0E-30
          EPS_GRID   1.0E-30
        &END
        ERI_METHOD OS
        IM_TIME
        &IM_TIME
          EPS_FILTER_IM_TIME 1.0E-30
          DO_DBCSR_T .FALSE.
          GW
          GROUP_SIZE_3c 1
          GROUP_SIZE_P 1
          POINTS_PER_MAGNITUDE 1000
        &END
        &RI_RPA
          &HF
            FRACTION 1.0000000
            &SCREENING
              EPS_SCHWARZ 2.0E-17
              SCREEN_ON_INITIAL_P FALSE
            &END SCREENING
          &END HF
          RPA_NUM_QUAD_POINTS 14
          MINIMAX
          &RI_G0W0
            CORR_MOS_OCC          10
            CORR_MOS_VIRT         10
            ANALYTIC_CONTINUATION PADE
            CROSSING_SEARCH NEWTON
            OMEGA_MAX_FIT 2.0
          &END RI_G0W0
        &END RI_RPA
        MEMORY  200.
        NUMBER_PROC  1
      &END
    &END XC
  &END DFT
  &SUBSYS
    &CELL
      ABC 16.0 16.0 16.0
      PERIODIC NONE
    &END CELL
    &TOPOLOGY
      COORD_FILE_NAME  28_C6H6.xyz
      COORD_FILE_FORMAT xyz
      &CENTER_COORDINATES
      &END
    &END TOPOLOGY
    &KIND H
      BASIS_SET def2-QZVP
      RI_AUX_BASIS RI-5Z
      POTENTIAL ALL
    &END KIND
    &KIND He
      BASIS_SET def2-QZVP
      RI_AUX_BASIS RI-5Z
      POTENTIAL ALL
    &END KIND
    &KIND Li
      BASIS_SET def2-QZVP
      RI_AUX_BASIS RI-5Z
      POTENTIAL ALL
    &END KIND
    &KIND Be
      BASIS_SET def2-QZVP
      RI_AUX_BASIS RI-5Z
      POTENTIAL ALL
    &END KIND
    &KIND B
      BASIS_SET def2-QZVP
      RI_AUX_BASIS RI-5Z
      POTENTIAL ALL
    &END KIND
    &KIND C
      BASIS_SET def2-QZVP
      RI_AUX_BASIS RI-5Z
      POTENTIAL ALL
    &END KIND
    &KIND N
      BASIS_SET def2-QZVP
      RI_AUX_BASIS RI-5Z
      POTENTIAL ALL
    &END KIND
    &KIND O
      BASIS_SET def2-QZVP
      RI_AUX_BASIS RI-5Z
      POTENTIAL ALL
    &END KIND
    &KIND F
      BASIS_SET def2-QZVP
      RI_AUX_BASIS RI-5Z
      POTENTIAL ALL
    &END KIND
    &KIND Ne
      BASIS_SET def2-QZVP
      RI_AUX_BASIS RI-5Z
      POTENTIAL ALL
    &END KIND
    &KIND Na
      BASIS_SET def2-QZVP
      RI_AUX_BASIS RI-5Z
      POTENTIAL ALL
    &END KIND
    &KIND Mg
      BASIS_SET def2-QZVP
      RI_AUX_BASIS RI-5Z
      POTENTIAL ALL
    &END KIND
    &KIND Al
      BASIS_SET def2-QZVP
      RI_AUX_BASIS RI-5Z
      POTENTIAL ALL
    &END KIND
    &KIND Si
      BASIS_SET def2-QZVP
      RI_AUX_BASIS RI-5Z
      POTENTIAL ALL
    &END KIND
    &KIND P
      BASIS_SET def2-QZVP
      RI_AUX_BASIS RI-5Z
      POTENTIAL ALL
    &END KIND
    &KIND S
      BASIS_SET def2-QZVP
      RI_AUX_BASIS RI-5Z
      POTENTIAL ALL
    &END KIND
    &KIND Cl
      BASIS_SET def2-QZVP
      RI_AUX_BASIS RI-5Z
      POTENTIAL ALL
    &END KIND
    &KIND Ar
      BASIS_SET def2-QZVP
      RI_AUX_BASIS RI-5Z
      POTENTIAL ALL
    &END KIND
    &KIND K
      BASIS_SET def2-QZVP
      RI_AUX_BASIS RI-5Z
      POTENTIAL ALL
    &END KIND
    &KIND Ca
      BASIS_SET def2-QZVP
      RI_AUX_BASIS RI-5Z
      POTENTIAL ALL
    &END KIND
    &KIND Ti
      BASIS_SET def2-QZVP
      RI_AUX_BASIS RI-5Z
      POTENTIAL ALL
    &END KIND
    &KIND Cu
      BASIS_SET def2-QZVP
      RI_AUX_BASIS RI-5Z
      POTENTIAL ALL
    &END KIND
    &KIND Ga
      BASIS_SET def2-QZVP
      RI_AUX_BASIS RI-5Z
      POTENTIAL ALL
    &END KIND
    &KIND Ge
      BASIS_SET def2-QZVP
      RI_AUX_BASIS RI-5Z
      POTENTIAL ALL
    &END KIND
    &KIND As
      BASIS_SET def2-QZVP
      RI_AUX_BASIS RI-5Z
      POTENTIAL ALL
    &END KIND
    &KIND Se
      BASIS_SET def2-QZVP
      RI_AUX_BASIS RI-5Z
      POTENTIAL ALL
    &END KIND
    &KIND Br
      BASIS_SET def2-QZVP
      RI_AUX_BASIS RI-5Z
      POTENTIAL ALL
    &END KIND
    &KIND Kr
      BASIS_SET def2-QZVP
      RI_AUX_BASIS RI-5Z
      POTENTIAL ALL
    &END KIND
    &KIND Rb
      BASIS_SET def2-QZVP
      RI_AUX_BASIS RI-5Z
      POTENTIAL ALL
    &END KIND
    &KIND I
      BASIS_SET def2-QZVP
      RI_AUX_BASIS RI-5Z
      POTENTIAL ALL
    &END KIND
    &KIND Xe
      BASIS_SET def2-QZVP
      RI_AUX_BASIS RI-5Z
      POTENTIAL ALL
    &END KIND
  &END SUBSYS
&END FORCE_EVAL
&GLOBAL
  RUN_TYPE     ENERGY
  PROJECT      ALL_ELEC
  PRINT_LEVEL  MEDIUM
&END GLOBAL
