&FORCE_EVAL
  METHOD Quickstep
  &DFT
    BASIS_SET_FILE_NAME BASIS_def2_QZVP_RI_ALL
    POTENTIAL_FILE_NAME POTENTIAL
    &MGRID
      CUTOFF 400
      REL_CUTOFF 50
    &END MGRID
    &QS
      ! all electron calculation since GW100 is all-electron test
      METHOD GAPW
    &END QS
    &POISSON
      PERIODIC NONE
      PSOLVER WAVELET
    &END
    &SCF
      EPS_SCF 1.0E-6
      SCF_GUESS RESTART
      MAX_SCF 200
    &END SCF
    &XC
      &XC_FUNCTIONAL PBE
      &END XC_FUNCTIONAL
    &END XC
  &END DFT
  &PROPERTIES
    &BANDSTRUCTURE
      &GW
        NUM_TIME_FREQ_POINTS 20
      &END
    &END
  &END
  &SUBSYS
    &CELL
      ABC 25 25 25
      PERIODIC NONE
    &END CELL
    &TOPOLOGY
      COORD_FILE_NAME  48_HN3.xyz
      COORD_FILE_FORMAT xyz
      &CENTER_COORDINATES
      &END
    &END TOPOLOGY
    &KIND H
      BASIS_SET def2-QZVP
      BASIS_SET RI_AUX RI-5Z
      POTENTIAL ALL
    &END KIND
    &KIND He
      BASIS_SET def2-QZVP
      BASIS_SET RI_AUX RI-5Z
      POTENTIAL ALL
    &END KIND
    &KIND Li
      BASIS_SET def2-QZVP
      BASIS_SET RI_AUX RI-5Z
      POTENTIAL ALL
    &END KIND
    &KIND Be
      BASIS_SET def2-QZVP
      BASIS_SET RI_AUX RI-5Z
      POTENTIAL ALL
    &END KIND
    &KIND B
      BASIS_SET def2-QZVP
      BASIS_SET RI_AUX RI-5Z
      POTENTIAL ALL
    &END KIND
    &KIND C
      BASIS_SET def2-QZVP
      BASIS_SET RI_AUX RI-5Z
      POTENTIAL ALL
    &END KIND
    &KIND N
      BASIS_SET def2-QZVP
      BASIS_SET RI_AUX RI-5Z
      POTENTIAL ALL
    &END KIND
    &KIND O
      BASIS_SET def2-QZVP
      BASIS_SET RI_AUX RI-5Z
      POTENTIAL ALL
    &END KIND
    &KIND F
      BASIS_SET def2-QZVP
      BASIS_SET RI_AUX RI-5Z
      POTENTIAL ALL
    &END KIND
    &KIND Ne
      BASIS_SET def2-QZVP
      BASIS_SET RI_AUX RI-5Z
      POTENTIAL ALL
    &END KIND
    &KIND Na
      BASIS_SET def2-QZVP
      BASIS_SET RI_AUX RI-5Z
      POTENTIAL ALL
    &END KIND
    &KIND Mg
      BASIS_SET def2-QZVP
      BASIS_SET RI_AUX RI-5Z
      POTENTIAL ALL
    &END KIND
    &KIND Al
      BASIS_SET def2-QZVP
      BASIS_SET RI_AUX RI-5Z
      POTENTIAL ALL
    &END KIND
    &KIND Si
      BASIS_SET def2-QZVP
      BASIS_SET RI_AUX RI-5Z
      POTENTIAL ALL
    &END KIND
    &KIND P
      BASIS_SET def2-QZVP
      BASIS_SET RI_AUX RI-5Z
      POTENTIAL ALL
    &END KIND
    &KIND S
      BASIS_SET def2-QZVP
      BASIS_SET RI_AUX RI-5Z
      POTENTIAL ALL
    &END KIND
    &KIND Cl
      BASIS_SET def2-QZVP
      BASIS_SET RI_AUX RI-5Z
      POTENTIAL ALL
    &END KIND
    &KIND Ar
      BASIS_SET def2-QZVP
      BASIS_SET RI_AUX RI-5Z
      POTENTIAL ALL
    &END KIND
    &KIND K
      BASIS_SET def2-QZVP
      BASIS_SET RI_AUX RI-5Z
      POTENTIAL ALL
    &END KIND
    &KIND Ca
      BASIS_SET def2-QZVP
      BASIS_SET RI_AUX RI-5Z
      POTENTIAL ALL
    &END KIND
    &KIND Ti
      BASIS_SET def2-QZVP
      BASIS_SET RI_AUX RI-5Z
      POTENTIAL ALL
    &END KIND
    &KIND Cu
      BASIS_SET def2-QZVP
      BASIS_SET RI_AUX RI-5Z
      POTENTIAL ALL
    &END KIND
    &KIND Ga
      BASIS_SET def2-QZVP
      BASIS_SET RI_AUX RI-5Z
      POTENTIAL ALL
    &END KIND
    &KIND Ge
      BASIS_SET def2-QZVP
      BASIS_SET RI_AUX RI-5Z
      POTENTIAL ALL
    &END KIND
    &KIND As
      BASIS_SET def2-QZVP
      BASIS_SET RI_AUX RI-5Z
      POTENTIAL ALL
    &END KIND
    &KIND Se
      BASIS_SET def2-QZVP
      BASIS_SET RI_AUX RI-5Z
      POTENTIAL ALL
    &END KIND
    &KIND Br
      BASIS_SET def2-QZVP
      BASIS_SET RI_AUX RI-5Z
      POTENTIAL ALL
    &END KIND
    &KIND Kr
      BASIS_SET def2-QZVP
      BASIS_SET RI_AUX RI-5Z
      POTENTIAL ALL
    &END KIND
    &KIND Rb
      BASIS_SET def2-QZVP
      BASIS_SET RI_AUX RI-5Z
      POTENTIAL ALL
    &END KIND
    &KIND I
      BASIS_SET def2-QZVP
      BASIS_SET RI_AUX RI-5Z
      POTENTIAL ALL
    &END KIND
    &KIND Xe
      BASIS_SET def2-QZVP
      BASIS_SET RI_AUX RI-5Z
      POTENTIAL ALL
    &END KIND
    &KIND Rb
      BASIS_SET def2-QZVP
      BASIS_SET RI_AUX RI-5Z
      POTENTIAL ALL
    &END KIND
  &END SUBSYS
&END FORCE_EVAL
&GLOBAL
  RUN_TYPE     ENERGY
  PROJECT      ALL_ELEC
  PRINT_LEVEL  MEDIUM
&END GLOBAL
